

n=20;

m=10;
 			
37	36	1	4	64	74	32	67	73	7	78	64	98	60	89	49	2	79	79	53
59	16	90	3	76	74	22	30	89	61	39	15	69	57	9	13	71	2	34	49
65	94	96	47	35	34	84	3	60	34	70	57	8	74	13	37	87	71	89	57
70	3	43	14	26	83	26	65	47	94	75	30	1	71	46	87	78	76	75	55
94	98	63	83	19	79	54	78	29	8	38	97	61	10	37	16	78	96	9	91
61	86	16	42	14	92	67	77	46	41	78	3	72	95	53	59	34	66	42	63
27	92	8	65	34	6	42	39	2	7	85	32	14	74	59	95	48	37	59	4
42	93	32	30	16	95	58	12	95	21	74	38	4	31	62	39	97	57	9	54
13	47	6	70	19	97	41	1	57	60	62	14	90	76	12	89	37	35	91	69
94	98	63	83	19	79	54	78	29	8	38	97	61	10	37	16	78	96	9	91
																		



 
